p cnf 47 30
-24 -36 -32 0
42 -20 20 0
-13 11 -20 0
-17 40 -42 0
-10 36 17 0
-37 37 -37 0
32 -7 -22 0
-13 18 -24 0
-34 27 -34 0
-12 -8 14 0
24 -33 29 0
42 -45 14 0
1 2 3 4 5 6 7 8 9 10 11 12 13 14 15 16 17 18 19 20 21 22 23 24 25 26 27 28 29 30 31 32 33 34 35 36 37 38 39 40 41 42 43 44 45 46 47 0
-22 -35 12 0
16 2 22 0
16 12 -42 0
-36 -20 -8 0
17 25 -33 0
20 31 5 0
-47 -27 -26 0
-23 -27 27 0
-2 -12 -41 0
20 -9 -18 0
12 44 19 0
-1 -2 -3 -4 -5 -6 -7 -8 -9 -10 -11 -12 -13 -14 -15 -16 -17 -18 -19 -20 -21 -22 -23 -24 -25 -26 -27 -28 -29 -30 -31 -32 -33 -34 -35 -36 -37 -38 -39 -40 -41 -42 -43 -44 -45 -46 -47 0
-19 -4 19 0
14 -23 32 0
5 -42 -22 0
40 11 -31 0
-26 -17 -20 0
